17	4	3
16	13	17	15	38	6	22	
0	0	0	0	0	7	8	1	9	3	6	3	2	3	4
9	8	3	4	7	10	6	3	7	3	9	1	17
2	3	10	7	7	2	5	7	9	5	5	2	6	13
2	2	8	1	8	4	3	1	7	7	2	3	5	7	9
10	4	5	9	5	8	6	1	7	3	7	2	8	15
250	9	4	4	7	10	9	5	1	7	7	2	11	17
175	9	1	5	7	6	7	3	9	4	5	1	17
150	5	3	5	1	7	5	10	4	4	5	2	10	17
250	7	6	9	2	9	7	8	9	3	4	2	12	17
150	10	9	6	5	10	1	10	1	8	2	1	17
75	7	1	9	8	7	8	10	1	8	7	1	17
250	10	10	6	8	8	4	4	10	2	7	2	14	17
8	1	5	6	5	5	9	2	5	3	5	1	17
3	6	2	3	1	10	1	2	7	10	4	2	16	17
4	9	4	6	6	1	10	4	10	10	1	1	16
7	8	6	9	5	1	7	8	1	8	6	2	17	17
0	0	0	0	0	8	6	9	1	6	1	0
